SimulationType                      MonteCarlo
NumberOfCycles                      1000
NumberOfInitializationCycles        0
PrintEvery                          1
PrintPropertiesEvery                1

RestartFile                         no

ForceField                          local
CutOffVDW                           12.8
CutOffChargeCharge                  12.8
CutOffChargeBondDipole              12.8
CutOffBondDipoleBondDipole          12.8
ChargeMethod                        Ewald
EwaldPrecision                      1e-06

Framework                           0
FrameworkName                       MgMOF-74
HeliumVoidFraction                  0.0
ExternalTemperature                 298.0
ExternalPressure                    10000.0
UseChargesFromCIFFile               yes
UnitCells                           2 2 4

Component 0 MoleculeName                  CO2
            MolFraction                   1.0
            MoleculeDefinition            TraPPE
            SwapProbability               0.5
            TranslationProbability        0.3
            RotationProbability           0.2
            IdentityChangeProbability     0.1
                NumberOfIdentityChanges     1
                IdentityChangesList         0
            CreateNumberOfMolecules       0

